20
1 0 1
3 1 1
4 3 1
5 2 1
6 5 1
7 0 1
7 1 1
7 3 1
7 5 1
8 0 1
8 2 1
8 5 1
8 6 1
8 7 1
9 2 1
9 4 1
9 8 1
10 0 1
10 3 1
10 4 1
10 5 1
10 7 1
10 8 1
10 9 1
11 0 1
11 1 1
11 2 1
11 3 1
11 4 1
11 5 1
11 6 1
11 9 1
11 10 1
12 3 1
12 4 1
12 5 1
12 8 1
12 10 1
13 2 1
13 3 1
13 6 1
13 9 1
13 10 1
13 12 1
14 1 1
14 4 1
14 5 1
14 6 1
14 7 1
14 12 1
15 0 1
15 3 1
15 4 1
15 7 1
15 8 1
15 9 1
15 11 1
15 14 1
16 0 1
16 4 1
16 5 1
16 6 1
16 8 1
16 9 1
16 11 1
16 12 1
16 15 1
17 0 1
17 2 1
17 3 1
17 6 1
17 10 1
17 11 1
17 12 1
17 15 1
17 16 1
18 0 1
18 2 1
18 6 1
18 8 1
18 9 1
18 12 1
18 13 1
19 1 1
19 3 1
19 6 1
19 15 1
